p cnf 42 114
a 18 20 0
e 1 2 3 4 5 6 7 8 9 10 11 12 13 14 15 16 17 19 21 22 23 24 25 26 27 28 29 30 31 32 33 34 35 36 37 38 39 40 41 42 0
3 1 0
3 -2 0
-1 2 -3 0
-5 -4 0
-5 -2 0
4 2 5 0
-6 3 0
-6 -5 0
-3 5 6 0
-8 6 0
-8 -7 0
-6 7 8 0
9 8 0
9 -7 0
-8 7 -9 0
11 -7 0
11 -7 0
7 -11 0
12 10 0
12 -11 0
-10 11 -12 0
5 -13 -14 0
-5 13 -14 0
5 13 14 0
-5 -13 14 0
15 4 0
15 14 0
-4 -14 -15 0
-17 16 0
-17 -2 0
-16 2 17 0
-18 -15 0
-18 -17 0
15 17 18 0
1 -3 -19 0
-1 3 -19 0
1 3 19 0
-1 -3 19 0
22 -20 0
22 -21 0
20 21 -22 0
23 22 0
23 20 0
-22 -20 -23 0
19 23 -24 0
-19 -23 -24 0
19 -23 24 0
-19 23 24 0
25 -18 0
25 -24 0
18 24 -25 0
26 12 0
26 -25 0
-12 25 -26 0
-4 27 -28 0
4 -27 -28 0
-4 -27 28 0
4 27 28 0
29 28 0
29 14 0
-28 -14 -29 0
30 29 0
30 14 0
-29 -14 -30 0
31 -1 0
31 -14 0
1 14 -31 0
-29 -3 -32 0
29 3 -32 0
-29 3 32 0
29 -3 32 0
-33 -31 0
-33 32 0
31 -32 33 0
30 33 -34 0
-30 -33 -34 0
30 -33 34 0
-30 33 34 0
-35 26 0
-35 -34 0
-26 34 35 0
36 9 0
36 -35 0
-9 35 -36 0
8 1 -37 0
-8 -1 -37 0
8 -1 37 0
-8 1 37 0
-38 -17 0
-38 -6 0
17 6 38 0
-39 -22 0
-39 14 0
22 -14 39 0
40 -38 0
40 -39 0
38 39 -40 0
41 -37 0
41 40 0
37 -40 -41 0
42 36 0
42 -41 0
-36 41 -42 0
-2 37 6 0
16 8 -37 -24 33 -27 0
26 -12 9 27 -20 0
33 -23 -41 22 4 -30 -17 0
25 12 -41 -38 18 22 0
25 23 41 0
-31 8 10 41 0
-32 15 28 0
10 3 28 -36 0
25 -26 15 40 0
42 0
